
Gurobi 10.0.0 (win64, gurobi_cl) logging started Tue Mar 21 09:24:28 2023

Set parameter Username
Set parameter LogFile to value "gurobi.log"
Academic license - for non-commercial use only - expires 2023-11-23
Using license file C:\Users\tomvanwoudenbe\gurobi.lic
